(set-logic ALL)
(declare-fun f (Int Int) Bool)
(declare-fun g (Int Int) Bool)
(declare-fun j () Int)
(declare-fun k () Int)
(declare-fun n () Int)
(declare-fun lift_l () Int)
(declare-fun lift_nat_bridge$ (Int) Int)
(declare-fun lift_score$ (Int) Int)
(declare-fun lift_to_int$ (Int) Int)
(assert (< 0 n))
(assert (forall ((x Int) (lift_x0 Int)) (=> (>= lift_x0 0) (=> (f x (lift_to_int$ lift_x0)) (and (<= 1 x) (<= x n) (<= 0 (lift_to_int$ lift_x0)))))))
(assert (forall ((x1 Int) (x2 Int) (x3 Int)) (=> (and (f x1 x2) (f x1 x3)) (= x2 x3))))
(assert (forall ((x4 Int)) (=> (and (<= 1 x4) (<= x4 n)) (exists ((x5 Int)) (f x4 x5)))))
(assert (forall ((x6 Int) (x7 Int) (x8 Int)) (=> (and (f x7 x6) (f x8 x6)) (= x7 x8))))
(assert (forall ((lift_x9 Int) (lift_x10 Int)) (=> (and (>= lift_x9 0) (>= lift_x10 0)) (=> (g (lift_to_int$ lift_x9) (lift_to_int$ lift_x10)) (and (<= 0 (lift_to_int$ lift_x9)) (<= 0 (lift_to_int$ lift_x10)))))))
(assert (forall ((x11 Int) (lift_x12 Int)) (=> (>= lift_x12 0) (=> (g x11 (lift_to_int$ lift_x12)) (and (<= 1 x11) (<= x11 n) (<= 0 (lift_to_int$ lift_x12)))))))
(assert (forall ((x13 Int) (x14 Int) (x15 Int)) (=> (and (g x13 x14) (g x13 x15)) (= x14 x15))))
(assert (forall ((x16 Int)) (=> (and (<= 1 x16) (<= x16 n)) (exists ((x17 Int)) (g x16 x17)))))
(assert (forall ((x18 Int) (x19 Int) (x20 Int)) (=> (and (g x19 x18) (g x20 x18)) (= x19 x20))))
(assert (forall ((x21 Int)) (= (exists ((x22 Int)) (g x22 x21)) (exists ((x23 Int)) (f x23 x21)))))
(assert (<= 1 k))
(assert (<= k n))
(assert (forall ((i Int) (j0 Int)) (=> (and (<= 1 i) (<= i (- k 1)) (<= (+ i 1) j0) (<= j0 n)) (forall ((x24 Int) (x25 Int)) (=> (and (g i x25) (g j0 x24)) (< x25 x24))))))
(assert (<= 0 (lift_to_int$ lift_l)))
(assert (<= k j))
(assert (<= j n))
(assert (<= k (lift_to_int$ lift_l)))
(assert (<= (lift_to_int$ lift_l) j))
(assert (exists ((x26 Int)) (and (exists ((x27 Int)) (and (<= k x27) (<= x27 j) (g x27 x26))) (forall ((x28 Int)) (=> (exists ((x29 Int)) (and (<= k x29) (<= x29 j) (g x29 x28))) (<= x26 x28))) (g (lift_to_int$ (lift_to_int$ lift_l)) x26))))
(assert (exists ((x30 Int)) (g (lift_to_int$ (lift_to_int$ lift_l)) x30)))
(assert (forall ((x31 Int) (x32 Int) (x33 Int)) (=> (and (g x31 x32) (g x31 x33)) (= x32 x33))))
(assert (exists ((b Int)) (forall ((x34 Int)) (=> (exists ((x35 Int)) (and (<= k x35) (<= x35 j) (g x35 x34))) (<= b x34)))))
(assert (= j n))
(assert (exists ((x36 Int)) (g k x36)))
(assert (or (exists ((x37 Int)) (and (exists ((x38 Int)) (and (= x38 (+ k 1)) (g x38 x37))) (not (or (exists ((x39 Int)) (and (= (+ k 1) k) (g (lift_to_int$ (lift_to_int$ lift_l)) x39))) (exists ((x40 Int)) (and (= (+ k 1) (lift_to_int$ lift_l)) (g k x40))))))) (exists ((x41 Int)) (and (= (+ k 1) k) (g (lift_to_int$ (lift_to_int$ lift_l)) x41) (not (exists ((x42 Int)) (and (= (+ k 1) (lift_to_int$ lift_l)) (g k x42)))))) (exists ((x43 Int)) (and (= (+ k 1) (lift_to_int$ lift_l)) (g k x43)))))
(assert (forall ((x44 Int) (x45 Int) (x46 Int)) (=> (and (or (and (g x44 x45) (not (or (exists ((x47 Int)) (and (= x44 k) (g (lift_to_int$ (lift_to_int$ lift_l)) x47))) (exists ((x48 Int)) (and (= x44 (lift_to_int$ lift_l)) (g k x48)))))) (and (= x44 k) (g (lift_to_int$ (lift_to_int$ lift_l)) x45) (not (exists ((x49 Int)) (and (= x44 (lift_to_int$ lift_l)) (g k x49))))) (and (= x44 (lift_to_int$ lift_l)) (g k x45))) (or (and (g x44 x46) (not (or (exists ((x50 Int)) (and (= x44 k) (g (lift_to_int$ (lift_to_int$ lift_l)) x50))) (exists ((x51 Int)) (and (= x44 (lift_to_int$ lift_l)) (g k x51)))))) (and (= x44 k) (g (lift_to_int$ (lift_to_int$ lift_l)) x46) (not (exists ((x52 Int)) (and (= x44 (lift_to_int$ lift_l)) (g k x52))))) (and (= x44 (lift_to_int$ lift_l)) (g k x46)))) (= x45 x46))))
(assert (exists ((b0 Int)) (forall ((x53 Int)) (=> (exists ((x54 Int)) (and (<= (+ k 1) x54) (<= x54 (+ k 1)) (or (and (g x54 x53) (not (or (exists ((x55 Int)) (and (= x54 k) (g (lift_to_int$ (lift_to_int$ lift_l)) x55))) (exists ((x56 Int)) (and (= x54 (lift_to_int$ lift_l)) (g k x56)))))) (and (= x54 k) (g (lift_to_int$ (lift_to_int$ lift_l)) x53) (not (exists ((x57 Int)) (and (= x54 (lift_to_int$ lift_l)) (g k x57))))) (and (= x54 (lift_to_int$ lift_l)) (g k x53))))) (<= b0 x53)))))
(assert (forall ((a Int) (b1 Int)) (=> (and (<= 1 a) (<= a n) (<= 1 b1) (<= b1 n) (not (= a b1))) (forall ((x58 Int) (x59 Int)) (= (or (and (g x58 x59) (not (or (exists ((x60 Int)) (and (= x58 a) (g b1 x60))) (exists ((x61 Int)) (and (= x58 b1) (g a x61)))))) (and (= x58 a) (g b1 x59) (not (exists ((x62 Int)) (and (= x58 b1) (g a x62))))) (and (= x58 b1) (g a x59))) (or (and (g x58 x59) (not (or (= x58 a) (= x58 b1)))) (and (= x58 a) (g b1 x59)) (and (= x58 b1) (g a x59))))))))
(assert (forall ((a0 Int) (b2 Int)) (=> (and (<= 1 a0) (<= a0 n) (<= 1 b2) (<= b2 n) (not (= a0 b2))) (and (forall ((x63 Int) (lift_x64 Int)) (=> (>= lift_x64 0) (=> (or (and (= x63 a0) (g b2 (lift_to_int$ lift_x64))) (and (= x63 b2) (g a0 (lift_to_int$ lift_x64)))) (and (<= 1 x63) (<= x63 n) (<= 0 (lift_to_int$ lift_x64)))))) (forall ((x65 Int) (x66 Int) (x67 Int)) (=> (and (or (and (= x65 a0) (g b2 x66)) (and (= x65 b2) (g a0 x66))) (or (and (= x65 a0) (g b2 x67)) (and (= x65 b2) (g a0 x67)))) (= x66 x67))) (forall ((x68 Int) (x69 Int) (x70 Int)) (=> (and (or (and (= x69 a0) (g b2 x68)) (and (= x69 b2) (g a0 x68))) (or (and (= x70 a0) (g b2 x68)) (and (= x70 b2) (g a0 x68)))) (= x69 x70)))))))
(assert (forall ((a1 Int) (b3 Int)) (=> (and (<= 1 a1) (<= a1 n) (<= 1 b3) (<= b3 n) (not (= a1 b3))) (and (forall ((x71 Int) (lift_x72 Int)) (=> (>= lift_x72 0) (=> (and (g x71 (lift_to_int$ lift_x72)) (not (or (= x71 a1) (= x71 b3)))) (and (<= 1 x71) (<= x71 n) (<= 0 (lift_to_int$ lift_x72)))))) (forall ((x73 Int) (x74 Int) (x75 Int)) (=> (and (g x73 x74) (not (or (= x73 a1) (= x73 b3))) (g x73 x75)) (= x74 x75))) (forall ((x76 Int) (x77 Int) (x78 Int)) (=> (and (g x77 x76) (not (or (= x77 a1) (= x77 b3))) (g x78 x76) (not (or (= x78 a1) (= x78 b3)))) (= x77 x78)))))))
(assert (forall ((a2 Int) (b4 Int)) (=> (and (<= 1 a2) (<= a2 n) (<= 1 b4) (<= b4 n) (not (= a2 b4))) (forall ((x79 Int)) (= (or (exists ((x80 Int)) (and (g x79 x80) (not (or (= x79 a2) (= x79 b4))))) (exists ((x81 Int)) (and (= x79 a2) (g b4 x81))) (exists ((x82 Int)) (and (= x79 b4) (g a2 x82)))) (and (<= 1 x79) (<= x79 n)))))))
(assert (forall ((a3 Int) (b5 Int)) (=> (and (<= 1 a3) (<= a3 n) (<= 1 b5) (<= b5 n) (not (= a3 b5))) (forall ((x83 Int)) (not (and (exists ((x84 Int)) (and (g x84 x83) (not (or (= x84 a3) (= x84 b5))))) (or (g b5 x83) (g a3 x83))))))))
(assert (not (forall ((x85 Int)) (not (and (exists ((x86 Int)) (g x85 x86)) (<= k x85) (<= x85 j))))))
(assert (not (= k n)))
(assert (not (forall ((x87 Int)) (not (and (or (exists ((x88 Int)) (and (g x87 x88) (not (or (exists ((x89 Int)) (and (= x87 k) (g (lift_to_int$ (lift_to_int$ lift_l)) x89))) (exists ((x90 Int)) (and (= x87 (lift_to_int$ lift_l)) (g k x90))))))) (exists ((x91 Int)) (and (= x87 k) (g (lift_to_int$ (lift_to_int$ lift_l)) x91) (not (exists ((x92 Int)) (and (= x87 (lift_to_int$ lift_l)) (g k x92)))))) (exists ((x93 Int)) (and (= x87 (lift_to_int$ lift_l)) (g k x93)))) (<= (+ k 1) x87) (<= x87 (+ k 1)))))))
(assert (= (+ k 1) (lift_to_int$ lift_l)))
(assert (exists ((x94 Int)) (and (exists ((x95 Int)) (and (<= k x95) (<= x95 n) (g x95 x94))) (forall ((x96 Int)) (=> (exists ((x97 Int)) (and (<= k x97) (<= x97 n) (g x97 x96))) (<= x94 x96))) (g (lift_to_int$ (lift_to_int$ lift_l)) x94))))
(assert (exists ((x98 Int) (x99 Int)) (and (= x98 (+ k 1)) (exists ((x100 Int)) (and (<= k x100) (<= x100 n) (g x100 x99))) (forall ((x101 Int)) (=> (exists ((x102 Int)) (and (<= k x102) (<= x102 n) (g x102 x101))) (<= x99 x101))) (g x98 x99))))
(assert (not (exists ((x103 Int)) (and (exists ((x104 Int)) (and (<= (+ k 1) x104) (<= x104 (+ k 1)) (or (and (g x104 x103) (not (or (exists ((x105 Int)) (and (= x104 k) (exists ((x106 Int)) (and (= x106 (+ k 1)) (g x106 x105))))) (exists ((x107 Int)) (and (= x104 (+ k 1)) (g k x107)))))) (and (= x104 k) (exists ((x108 Int)) (and (= x108 (+ k 1)) (g x108 x103))) (not (exists ((x109 Int)) (and (= x104 (+ k 1)) (g k x109))))) (and (= x104 (+ k 1)) (g k x103))))) (forall ((x110 Int)) (=> (exists ((x111 Int)) (and (<= (+ k 1) x111) (<= x111 (+ k 1)) (or (and (g x111 x110) (not (or (exists ((x112 Int)) (and (= x111 k) (exists ((x113 Int)) (and (= x113 (+ k 1)) (g x113 x112))))) (exists ((x114 Int)) (and (= x111 (+ k 1)) (g k x114)))))) (and (= x111 k) (exists ((x115 Int)) (and (= x115 (+ k 1)) (g x115 x110))) (not (exists ((x116 Int)) (and (= x111 (+ k 1)) (g k x116))))) (and (= x111 (+ k 1)) (g k x110))))) (<= x103 x110))) (g k x103)))))
(assert (and (>= (lift_nat_bridge$ (lift_to_int$ lift_l)) 0) (= (lift_score$ (lift_nat_bridge$ (lift_to_int$ lift_l))) (lift_to_int$ lift_l))))
(assert true)
(assert (>= lift_l 0))
(check-sat)
